NAME 
ROWS
 N  OBJ
 L  R0      
 L  R1      
 L  R2      
 L  R3      
 L  R4      
 L  R5      
 L  R6      
 L  R7      
 L  R8      
 L  R9      
COLUMNS
    MARKER    'MARKER'                 'INTORG'
    x[0]      OBJ       -10
    x[0]      R0        3
    x[0]      R1        -3
    x[0]      R2        8
    x[0]      R3        2
    x[0]      R4        -3
    x[0]      R5        1
    x[0]      R6        -1
    x[0]      R8        -1
    x[0]      R9        1
    x[1]      OBJ       3
    x[1]      R0        -9
    x[1]      R1        4
    x[1]      R2        4
    x[1]      R3        -4
    x[1]      R4        6
    x[1]      R6        1
    x[1]      R7        -1
    x[1]      R9        -1
    x[2]      OBJ       -4
    x[2]      R0        -6
    x[2]      R1        -5
    x[2]      R2        -3
    x[2]      R3        9
    x[2]      R4        9
    x[2]      R5        -1
    x[2]      R6        1
    x[2]      R7        1
    x[2]      R8        -1
    x[2]      R9        -1
    x[3]      OBJ       9
    x[3]      R0        -3
    x[3]      R1        -1
    x[3]      R2        -4
    x[3]      R3        -10
    x[3]      R4        1
    x[3]      R6        1
    x[3]      R8        1
    x[3]      R9        1
    x[4]      R0        -7
    x[4]      R1        4
    x[4]      R2        10
    x[4]      R3        -5
    x[4]      R4        9
    x[4]      R8        1
    x[5]      OBJ       -10
    x[5]      R0        -8
    x[5]      R1        -9
    x[5]      R3        -1
    x[5]      R4        5
    x[5]      R7        1
    x[5]      R8        1
    x[6]      OBJ       -2
    x[6]      R0        -8
    x[6]      R1        9
    x[6]      R2        -10
    x[6]      R3        2
    x[6]      R4        -4
    x[6]      R8        -1
    x[6]      R9        1
    x[7]      OBJ       -9
    x[7]      R1        3
    x[7]      R2        4
    x[7]      R3        10
    x[7]      R4        1
    x[7]      R8        1
    x[8]      OBJ       -4
    x[8]      R0        4
    x[8]      R1        1
    x[8]      R2        8
    x[8]      R3        3
    x[8]      R4        -5
    x[8]      R7        1
    x[8]      R9        -1
    x[9]      OBJ       -9
    x[9]      R0        8
    x[9]      R1        4
    x[9]      R2        -6
    x[9]      R3        -4
    x[9]      R4        -9
    x[9]      R5        1
    y[0]      OBJ       -7
    y[0]      R0        -4
    y[0]      R1        -1
    y[0]      R2        -3
    y[0]      R3        8
    y[0]      R4        5
    y[0]      R5        -86
    y[0]      R6        80
    y[0]      R7        73
    y[0]      R8        -62
    y[0]      R9        25
    y[1]      OBJ       -3
    y[1]      R0        -4
    y[1]      R1        -7
    y[1]      R2        -3
    y[1]      R3        8
    y[1]      R4        9
    y[1]      R5        64
    y[1]      R6        -24
    y[1]      R7        -4
    y[1]      R8        -72
    y[1]      R9        -4
    y[2]      OBJ       -7
    y[2]      R0        6
    y[2]      R1        -7
    y[2]      R3        10
    y[2]      R4        -8
    y[2]      R5        -74
    y[2]      R6        -32
    y[2]      R7        49
    y[2]      R8        14
    y[2]      R9        -59
    y[3]      OBJ       -8
    y[3]      R0        7
    y[3]      R1        -7
    y[3]      R2        2
    y[3]      R3        7
    y[3]      R4        3
    y[3]      R5        60
    y[3]      R6        73
    y[3]      R7        14
    y[3]      R8        -1
    y[3]      R9        52
    y[4]      OBJ       -7
    y[4]      R0        -5
    y[4]      R1        -9
    y[4]      R2        7
    y[4]      R3        -8
    y[4]      R4        9
    y[4]      R5        29
    y[4]      R6        92
    y[4]      R7        25
    y[4]      R8        -69
    y[4]      R9        -79
    y[5]      OBJ       -10
    y[5]      R0        -4
    y[5]      R1        -7
    y[5]      R2        -3
    y[5]      R3        9
    y[5]      R5        76
    y[5]      R6        -11
    y[5]      R7        -8
    y[5]      R8        79
    y[5]      R9        55
    y[6]      OBJ       -8
    y[6]      R0        -2
    y[6]      R1        6
    y[6]      R2        -3
    y[6]      R3        3
    y[6]      R4        3
    y[6]      R5        -12
    y[6]      R6        -60
    y[6]      R7        -29
    y[6]      R8        -34
    y[6]      R9        -54
    y[7]      OBJ       -2
    y[7]      R0        -2
    y[7]      R1        -5
    y[7]      R2        9
    y[7]      R3        1
    y[7]      R4        -3
    y[7]      R5        -78
    y[7]      R6        -93
    y[7]      R7        53
    y[7]      R8        -33
    y[7]      R9        -65
    y[8]      OBJ       -8
    y[8]      R0        -5
    y[8]      R1        -10
    y[8]      R2        9
    y[8]      R3        9
    y[8]      R4        8
    y[8]      R5        -66
    y[8]      R6        -93
    y[8]      R7        -3
    y[8]      R8        60
    y[8]      R9        -38
    y[9]      OBJ       -1
    y[9]      R0        -5
    y[9]      R1        -5
    y[9]      R2        -10
    y[9]      R3        5
    y[9]      R4        -2
    y[9]      R5        -6
    y[9]      R6        -67
    y[9]      R7        -99
    y[9]      R8        -26
    y[9]      R9        -32
    MARKER    'MARKER'                 'INTEND'
RHS
    RHS1      R0        -11
    RHS1      R1        -11.25
    RHS1      R2        4
    RHS1      R3        13.5
    RHS1      R4        8.5
    RHS1      R5        -23
    RHS1      R6        -33
    RHS1      R7        18
    RHS1      R8        -36
    RHS1      R9        -50
BOUNDS
 BV BND1      x[0]    
 BV BND1      x[1]    
 BV BND1      x[2]    
 BV BND1      x[3]    
 BV BND1      x[4]    
 BV BND1      x[5]    
 BV BND1      x[6]    
 BV BND1      x[7]    
 BV BND1      x[8]    
 BV BND1      x[9]    
 BV BND1      y[0]    
 BV BND1      y[1]    
 BV BND1      y[2]    
 BV BND1      y[3]    
 BV BND1      y[4]    
 BV BND1      y[5]    
 BV BND1      y[6]    
 BV BND1      y[7]    
 BV BND1      y[8]    
 BV BND1      y[9]    
ENDATA
